
Gurobi 7.5.1 (mac64) logging started Fri Oct  6 05:27:09 2017

Academic license - for non-commercial use only
Read LP format model from file model.lp
Reading time = 0.00 seconds
: 10 rows, 21 columns, 210 nonzeros
Optimize a model with 10 rows, 21 columns and 210 nonzeros
Coefficient statistics:
  Matrix range     [6e-01, 3e+01]
  Objective range  [1e+00, 3e+01]
  Bounds range     [1e+00, 1e+00]
  RHS range        [0e+00, 0e+00]
Presolve time: 0.00s
Presolved: 10 rows, 21 columns, 210 nonzeros

Iteration    Objective       Primal Inf.    Dual Inf.      Time
       0   -1.1696598e+02   7.402341e+01   0.000000e+00      0s
      10   -1.1079147e+01   0.000000e+00   0.000000e+00      0s

Solved in 10 iterations and 0.00 seconds
Optimal objective -1.107914702e+01

Gurobi 7.5.1 (mac64) logging started Fri Oct  6 05:33:59 2017

Academic license - for non-commercial use only
Read LP format model from file model.lp
Reading time = 0.00 seconds
: 10 rows, 21 columns, 210 nonzeros
Optimize a model with 10 rows, 21 columns and 210 nonzeros
Coefficient statistics:
  Matrix range     [6e-01, 3e+01]
  Objective range  [1e+00, 3e+01]
  Bounds range     [1e+00, 1e+00]
  RHS range        [0e+00, 0e+00]
Presolve time: 0.00s
Presolved: 10 rows, 21 columns, 210 nonzeros

Iteration    Objective       Primal Inf.    Dual Inf.      Time
       0   -1.1696598e+02   7.402341e+01   0.000000e+00      0s
      10   -1.1079147e+01   0.000000e+00   0.000000e+00      0s

Solved in 10 iterations and 0.00 seconds
Optimal objective -1.107914702e+01

Gurobi 7.5.1 (mac64) logging started Fri Oct  6 05:37:21 2017

Academic license - for non-commercial use only
Read LP format model from file model.lp
Reading time = 0.00 seconds
: 10 rows, 21 columns, 210 nonzeros
Optimize a model with 10 rows, 21 columns and 210 nonzeros
Coefficient statistics:
  Matrix range     [6e-01, 3e+01]
  Objective range  [1e+00, 3e+01]
  Bounds range     [1e+00, 1e+00]
  RHS range        [0e+00, 0e+00]
Presolve time: 0.00s
Presolved: 10 rows, 21 columns, 210 nonzeros

Iteration    Objective       Primal Inf.    Dual Inf.      Time
       0   -1.1696598e+02   7.402341e+01   0.000000e+00      0s
      10   -1.1079147e+01   0.000000e+00   0.000000e+00      0s

Solved in 10 iterations and 0.00 seconds
Optimal objective -1.107914702e+01

Gurobi 7.5.1 (mac64) logging started Fri Oct  6 05:41:54 2017

Academic license - for non-commercial use only
Read LP format model from file model.lp
Reading time = 0.00 seconds
: 10 rows, 21 columns, 210 nonzeros
Optimize a model with 10 rows, 21 columns and 210 nonzeros
Coefficient statistics:
  Matrix range     [6e-01, 3e+01]
  Objective range  [1e+00, 3e+01]
  Bounds range     [1e+00, 1e+00]
  RHS range        [0e+00, 0e+00]
Presolve time: 0.00s
Presolved: 10 rows, 21 columns, 210 nonzeros

Iteration    Objective       Primal Inf.    Dual Inf.      Time
       0   -1.1696598e+02   7.402341e+01   0.000000e+00      0s
      10   -1.1079147e+01   0.000000e+00   0.000000e+00      0s

Solved in 10 iterations and 0.00 seconds
Optimal objective -1.107914702e+01

Gurobi 7.5.1 (mac64) logging started Fri Oct  6 05:44:16 2017

Academic license - for non-commercial use only
Read LP format model from file model.lp
Reading time = 0.00 seconds
: 10 rows, 21 columns, 210 nonzeros
Optimize a model with 10 rows, 21 columns and 210 nonzeros
Coefficient statistics:
  Matrix range     [6e-01, 3e+01]
  Objective range  [1e+00, 3e+01]
  Bounds range     [1e+00, 1e+00]
  RHS range        [0e+00, 0e+00]
Presolve time: 0.00s
Presolved: 10 rows, 21 columns, 210 nonzeros

Iteration    Objective       Primal Inf.    Dual Inf.      Time
       0   -1.1696598e+02   7.402341e+01   0.000000e+00      0s
      10   -1.1079147e+01   0.000000e+00   0.000000e+00      0s

Solved in 10 iterations and 0.00 seconds
Optimal objective -1.107914702e+01

Gurobi 7.5.1 (mac64) logging started Fri Oct  6 05:45:34 2017

Academic license - for non-commercial use only
Read LP format model from file model.lp
Reading time = 0.00 seconds
: 10 rows, 21 columns, 210 nonzeros
Optimize a model with 10 rows, 21 columns and 210 nonzeros
Coefficient statistics:
  Matrix range     [6e-01, 3e+01]
  Objective range  [1e+00, 3e+01]
  Bounds range     [1e+00, 1e+00]
  RHS range        [0e+00, 0e+00]
Presolve time: 0.00s
Presolved: 10 rows, 21 columns, 210 nonzeros

Iteration    Objective       Primal Inf.    Dual Inf.      Time
       0   -1.1696598e+02   7.402341e+01   0.000000e+00      0s
      10   -1.1079147e+01   0.000000e+00   0.000000e+00      0s

Solved in 10 iterations and 0.00 seconds
Optimal objective -1.107914702e+01

Gurobi 7.5.1 (mac64) logging started Fri Oct  6 06:18:51 2017

Academic license - for non-commercial use only
Read LP format model from file model.lp
Reading time = 0.00 seconds
: 10 rows, 21 columns, 210 nonzeros
Optimize a model with 10 rows, 21 columns and 210 nonzeros
Coefficient statistics:
  Matrix range     [6e-01, 3e+01]
  Objective range  [1e+00, 3e+01]
  Bounds range     [1e+00, 1e+00]
  RHS range        [0e+00, 0e+00]
Presolve time: 0.00s
Presolved: 10 rows, 21 columns, 210 nonzeros

Iteration    Objective       Primal Inf.    Dual Inf.      Time
       0   -1.1696598e+02   7.402341e+01   0.000000e+00      0s
      10   -1.1079147e+01   0.000000e+00   0.000000e+00      0s

Solved in 10 iterations and 0.00 seconds
Optimal objective -1.107914702e+01

Gurobi 7.5.1 (mac64) logging started Fri Oct  6 06:26:38 2017

Academic license - for non-commercial use only
Read LP format model from file model.lp
Reading time = 0.00 seconds
: 10 rows, 21 columns, 210 nonzeros
Optimize a model with 10 rows, 21 columns and 210 nonzeros
Coefficient statistics:
  Matrix range     [6e-01, 3e+01]
  Objective range  [1e+00, 3e+01]
  Bounds range     [1e+00, 1e+00]
  RHS range        [0e+00, 0e+00]
Presolve time: 0.00s
Presolved: 10 rows, 21 columns, 210 nonzeros

Iteration    Objective       Primal Inf.    Dual Inf.      Time
       0   -1.1696598e+02   7.402341e+01   0.000000e+00      0s
      10   -1.1079147e+01   0.000000e+00   0.000000e+00      0s

Solved in 10 iterations and 0.00 seconds
Optimal objective -1.107914702e+01

Gurobi 7.5.1 (mac64) logging started Fri Oct  6 06:34:34 2017

Academic license - for non-commercial use only
Read LP format model from file model.lp
Reading time = 0.00 seconds
: 10 rows, 21 columns, 210 nonzeros
Optimize a model with 10 rows, 21 columns and 210 nonzeros
Coefficient statistics:
  Matrix range     [6e-01, 3e+01]
  Objective range  [1e+00, 3e+01]
  Bounds range     [1e+00, 1e+00]
  RHS range        [0e+00, 0e+00]
Presolve time: 0.00s
Presolved: 10 rows, 21 columns, 210 nonzeros

Iteration    Objective       Primal Inf.    Dual Inf.      Time
       0   -1.1696598e+02   7.402341e+01   0.000000e+00      0s
      10   -1.1079147e+01   0.000000e+00   0.000000e+00      0s

Solved in 10 iterations and 0.00 seconds
Optimal objective -1.107914702e+01

Gurobi 7.5.1 (mac64) logging started Fri Oct  6 06:38:38 2017

Academic license - for non-commercial use only
Read LP format model from file model.lp
Reading time = 0.00 seconds
: 10 rows, 21 columns, 210 nonzeros
Optimize a model with 10 rows, 21 columns and 210 nonzeros
Coefficient statistics:
  Matrix range     [6e-01, 3e+01]
  Objective range  [1e+00, 3e+01]
  Bounds range     [1e+00, 1e+00]
  RHS range        [0e+00, 0e+00]
Presolve time: 0.00s
Presolved: 10 rows, 21 columns, 210 nonzeros

Iteration    Objective       Primal Inf.    Dual Inf.      Time
       0   -1.1696598e+02   7.402341e+01   0.000000e+00      0s
      10   -1.1079147e+01   0.000000e+00   0.000000e+00      0s

Solved in 10 iterations and 0.00 seconds
Optimal objective -1.107914702e+01

Gurobi 7.5.1 (mac64) logging started Fri Oct  6 06:44:30 2017

Academic license - for non-commercial use only
Read LP format model from file model.lp
Reading time = 0.00 seconds
: 10 rows, 21 columns, 210 nonzeros
Optimize a model with 10 rows, 21 columns and 210 nonzeros
Coefficient statistics:
  Matrix range     [6e-01, 3e+01]
  Objective range  [1e+00, 3e+01]
  Bounds range     [1e+00, 1e+00]
  RHS range        [0e+00, 0e+00]
Presolve time: 0.00s
Presolved: 10 rows, 21 columns, 210 nonzeros

Iteration    Objective       Primal Inf.    Dual Inf.      Time
       0   -1.1696598e+02   7.402341e+01   0.000000e+00      0s
      10   -1.1079147e+01   0.000000e+00   0.000000e+00      0s

Solved in 10 iterations and 0.00 seconds
Optimal objective -1.107914702e+01

Gurobi 7.5.1 (mac64) logging started Fri Oct  6 06:44:41 2017

Academic license - for non-commercial use only
Read LP format model from file model.lp
Reading time = 0.00 seconds
: 10 rows, 21 columns, 210 nonzeros
Optimize a model with 10 rows, 21 columns and 210 nonzeros
Coefficient statistics:
  Matrix range     [6e-01, 3e+01]
  Objective range  [1e+00, 3e+01]
  Bounds range     [1e+00, 1e+00]
  RHS range        [0e+00, 0e+00]
Presolve time: 0.00s
Presolved: 10 rows, 21 columns, 210 nonzeros

Iteration    Objective       Primal Inf.    Dual Inf.      Time
       0   -1.1696598e+02   7.402341e+01   0.000000e+00      0s
      10   -1.1079147e+01   0.000000e+00   0.000000e+00      0s

Solved in 10 iterations and 0.00 seconds
Optimal objective -1.107914702e+01

Gurobi 7.5.1 (mac64) logging started Fri Oct  6 06:45:44 2017

Academic license - for non-commercial use only
Read LP format model from file model.lp
Reading time = 0.00 seconds
: 10 rows, 21 columns, 210 nonzeros
Optimize a model with 10 rows, 21 columns and 210 nonzeros
Coefficient statistics:
  Matrix range     [6e-01, 3e+01]
  Objective range  [1e+00, 3e+01]
  Bounds range     [1e+00, 1e+00]
  RHS range        [0e+00, 0e+00]
Presolve time: 0.00s
Presolved: 10 rows, 21 columns, 210 nonzeros

Iteration    Objective       Primal Inf.    Dual Inf.      Time
       0   -1.1696598e+02   7.402341e+01   0.000000e+00      0s
      10   -1.1079147e+01   0.000000e+00   0.000000e+00      0s

Solved in 10 iterations and 0.00 seconds
Optimal objective -1.107914702e+01

Gurobi 7.5.1 (mac64) logging started Fri Oct  6 06:46:19 2017

Academic license - for non-commercial use only
Read LP format model from file model.lp
Reading time = 0.00 seconds
: 10 rows, 21 columns, 210 nonzeros
Optimize a model with 10 rows, 21 columns and 210 nonzeros
Coefficient statistics:
  Matrix range     [6e-01, 3e+01]
  Objective range  [1e+00, 3e+01]
  Bounds range     [1e+00, 1e+00]
  RHS range        [0e+00, 0e+00]
Presolve time: 0.00s
Presolved: 10 rows, 21 columns, 210 nonzeros

Iteration    Objective       Primal Inf.    Dual Inf.      Time
       0   -1.1696598e+02   7.402341e+01   0.000000e+00      0s
      10   -1.1079147e+01   0.000000e+00   0.000000e+00      0s

Solved in 10 iterations and 0.00 seconds
Optimal objective -1.107914702e+01

Gurobi 7.5.1 (mac64) logging started Fri Oct  6 06:46:56 2017

Academic license - for non-commercial use only
Read LP format model from file model.lp
Reading time = 0.00 seconds
: 10 rows, 21 columns, 210 nonzeros
Optimize a model with 10 rows, 21 columns and 210 nonzeros
Coefficient statistics:
  Matrix range     [6e-01, 3e+01]
  Objective range  [1e+00, 3e+01]
  Bounds range     [1e+00, 1e+00]
  RHS range        [0e+00, 0e+00]
Presolve time: 0.00s
Presolved: 10 rows, 21 columns, 210 nonzeros

Iteration    Objective       Primal Inf.    Dual Inf.      Time
       0   -1.1696598e+02   7.402341e+01   0.000000e+00      0s
      10   -1.1079147e+01   0.000000e+00   0.000000e+00      0s

Solved in 10 iterations and 0.00 seconds
Optimal objective -1.107914702e+01

Gurobi 7.5.1 (mac64) logging started Fri Oct  6 06:56:47 2017

Academic license - for non-commercial use only
Read LP format model from file model.lp
Reading time = 0.00 seconds
: 10 rows, 21 columns, 210 nonzeros
Optimize a model with 10 rows, 21 columns and 210 nonzeros
Coefficient statistics:
  Matrix range     [6e-01, 3e+01]
  Objective range  [1e+00, 3e+01]
  Bounds range     [1e+00, 1e+00]
  RHS range        [0e+00, 0e+00]
Presolve time: 0.00s
Presolved: 10 rows, 21 columns, 210 nonzeros

Iteration    Objective       Primal Inf.    Dual Inf.      Time
       0   -1.1696598e+02   7.402341e+01   0.000000e+00      0s
      10   -1.1079147e+01   0.000000e+00   0.000000e+00      0s

Solved in 10 iterations and 0.00 seconds
Optimal objective -1.107914702e+01

Gurobi 7.5.1 (mac64) logging started Fri Oct  6 06:57:39 2017

Academic license - for non-commercial use only
Read LP format model from file model.lp
Reading time = 0.00 seconds
: 10 rows, 21 columns, 210 nonzeros
Optimize a model with 10 rows, 21 columns and 210 nonzeros
Coefficient statistics:
  Matrix range     [6e-01, 3e+01]
  Objective range  [1e+00, 3e+01]
  Bounds range     [1e+00, 1e+00]
  RHS range        [0e+00, 0e+00]
Presolve time: 0.00s
Presolved: 10 rows, 21 columns, 210 nonzeros

Iteration    Objective       Primal Inf.    Dual Inf.      Time
       0   -1.1696598e+02   7.402341e+01   0.000000e+00      0s
      10   -1.1079147e+01   0.000000e+00   0.000000e+00      0s

Solved in 10 iterations and 0.00 seconds
Optimal objective -1.107914702e+01

Gurobi 7.5.1 (mac64) logging started Fri Oct  6 07:03:28 2017

Academic license - for non-commercial use only
Read LP format model from file model.lp
Reading time = 0.00 seconds
: 10 rows, 21 columns, 210 nonzeros
Optimize a model with 10 rows, 21 columns and 210 nonzeros
Coefficient statistics:
  Matrix range     [6e-01, 3e+01]
  Objective range  [1e+00, 3e+01]
  Bounds range     [1e+00, 1e+00]
  RHS range        [0e+00, 0e+00]
Presolve time: 0.00s
Presolved: 10 rows, 21 columns, 210 nonzeros

Iteration    Objective       Primal Inf.    Dual Inf.      Time
       0   -1.1696598e+02   7.402341e+01   0.000000e+00      0s
      10   -1.1079147e+01   0.000000e+00   0.000000e+00      0s

Solved in 10 iterations and 0.00 seconds
Optimal objective -1.107914702e+01

Gurobi 7.5.1 (mac64) logging started Fri Oct  6 07:05:51 2017

Academic license - for non-commercial use only
Read LP format model from file model.lp
Reading time = 0.00 seconds
: 10 rows, 21 columns, 210 nonzeros
Optimize a model with 10 rows, 21 columns and 210 nonzeros
Coefficient statistics:
  Matrix range     [6e-01, 3e+01]
  Objective range  [1e+00, 3e+01]
  Bounds range     [1e+00, 1e+00]
  RHS range        [0e+00, 0e+00]
Presolve time: 0.00s
Presolved: 10 rows, 21 columns, 210 nonzeros

Iteration    Objective       Primal Inf.    Dual Inf.      Time
       0   -1.1696598e+02   7.402341e+01   0.000000e+00      0s
      10   -1.1079147e+01   0.000000e+00   0.000000e+00      0s

Solved in 10 iterations and 0.00 seconds
Optimal objective -1.107914702e+01

Gurobi 7.5.1 (mac64) logging started Fri Oct  6 07:08:58 2017

Academic license - for non-commercial use only
Read LP format model from file model.lp
Reading time = 0.00 seconds
: 10 rows, 21 columns, 210 nonzeros
Optimize a model with 10 rows, 21 columns and 210 nonzeros
Coefficient statistics:
  Matrix range     [6e-01, 3e+01]
  Objective range  [1e+00, 3e+01]
  Bounds range     [1e+00, 1e+00]
  RHS range        [0e+00, 0e+00]
Presolve time: 0.00s
Presolved: 10 rows, 21 columns, 210 nonzeros

Iteration    Objective       Primal Inf.    Dual Inf.      Time
       0   -1.1696598e+02   7.402341e+01   0.000000e+00      0s
      10   -1.1079147e+01   0.000000e+00   0.000000e+00      0s

Solved in 10 iterations and 0.00 seconds
Optimal objective -1.107914702e+01

Gurobi 7.5.1 (mac64) logging started Fri Oct  6 07:09:29 2017

Academic license - for non-commercial use only
Read LP format model from file model.lp
Reading time = 0.08 seconds
: 100 rows, 1001 columns, 100100 nonzeros
Optimize a model with 100 rows, 1001 columns and 100100 nonzeros
Coefficient statistics:
  Matrix range     [6e-02, 3e+01]
  Objective range  [1e-01, 3e+01]
  Bounds range     [1e+00, 1e+00]
  RHS range        [0e+00, 0e+00]

Concurrent LP optimizer: dual simplex and barrier
Showing barrier log only...

Presolve time: 0.05s
Presolved: 100 rows, 1001 columns, 100100 nonzeros

Ordering time: 0.00s

Barrier statistics:
 AA' NZ     : 4.950e+03
 Factor NZ  : 5.050e+03
 Factor Ops : 3.384e+05 (less than 1 second per iteration)
 Threads    : 1

                  Objective                Residual
Iter       Primal          Dual         Primal    Dual     Compl     Time
   0   7.33358834e+03 -1.86040752e+04  3.20e-01 3.55e-15  1.33e+01     0s
   1   5.81186634e+00 -1.87292656e+03  0.00e+00 4.26e-14  8.94e-01     0s
   2  -8.69373432e+01 -3.44307719e+02  0.00e+00 3.20e-14  1.22e-01     0s
   3  -1.83306841e+02 -2.24363016e+02  0.00e+00 2.49e-14  1.95e-02     0s
   4  -2.03231821e+02 -2.10876509e+02  0.00e+00 2.49e-14  3.64e-03     0s
   5  -2.07202082e+02 -2.08519480e+02  0.00e+00 3.20e-14  6.27e-04     0s
   6  -2.07950178e+02 -2.08260690e+02  0.00e+00 2.49e-14  1.48e-04     0s
   7  -2.08128826e+02 -2.08207558e+02  0.00e+00 3.20e-14  3.75e-05     0s
   8  -2.08169605e+02 -2.08195023e+02  0.00e+00 3.55e-14  1.21e-05     0s
   9  -2.08184078e+02 -2.08192349e+02  0.00e+00 2.84e-14  3.94e-06     0s
  10  -2.08189905e+02 -2.08191240e+02  0.00e+00 2.49e-14  6.35e-07     0s
  11  -2.08191013e+02 -2.08191029e+02  0.00e+00 3.91e-14  7.81e-09     0s
  12  -2.08191021e+02 -2.08191021e+02  8.08e-09 2.49e-14  1.41e-11     0s

Barrier solved model in 12 iterations and 0.19 seconds
Optimal objective -2.08191021e+02

Crossover log...

       0 DPushes remaining with DInf 0.0000000e+00                 0s

       0 PPushes remaining with PInf 0.0000000e+00                 0s

  Push phase complete: Pinf 0.0000000e+00, Dinf 7.9507668e-13      0s

Iteration    Objective       Primal Inf.    Dual Inf.      Time
       3   -2.0819102e+02   0.000000e+00   0.000000e+00      0s
       3   -2.0819102e+02   0.000000e+00   0.000000e+00      0s

Solved with barrier
Solved in 3 iterations and 0.22 seconds
Optimal objective -2.081910212e+02

Gurobi 7.5.1 (mac64) logging started Fri Oct  6 07:10:55 2017

Academic license - for non-commercial use only
Read LP format model from file model.lp
Reading time = 0.09 seconds
: 100 rows, 1001 columns, 100100 nonzeros
Optimize a model with 100 rows, 1001 columns and 100100 nonzeros
Coefficient statistics:
  Matrix range     [6e-02, 3e+01]
  Objective range  [1e-01, 3e+01]
  Bounds range     [1e+00, 1e+00]
  RHS range        [0e+00, 0e+00]

Concurrent LP optimizer: dual simplex and barrier
Showing barrier log only...

Presolve time: 0.04s
Presolved: 100 rows, 1001 columns, 100100 nonzeros

Ordering time: 0.00s

Barrier statistics:
 AA' NZ     : 4.950e+03
 Factor NZ  : 5.050e+03
 Factor Ops : 3.384e+05 (less than 1 second per iteration)
 Threads    : 1

                  Objective                Residual
Iter       Primal          Dual         Primal    Dual     Compl     Time
   0   7.33358834e+03 -1.86040752e+04  3.20e-01 3.55e-15  1.33e+01     0s
   1   5.81186634e+00 -1.87292656e+03  0.00e+00 4.26e-14  8.94e-01     0s
   2  -8.69373432e+01 -3.44307719e+02  0.00e+00 3.20e-14  1.22e-01     0s
   3  -1.83306841e+02 -2.24363016e+02  0.00e+00 2.49e-14  1.95e-02     0s
   4  -2.03231821e+02 -2.10876509e+02  0.00e+00 2.49e-14  3.64e-03     0s
   5  -2.07202082e+02 -2.08519480e+02  0.00e+00 3.20e-14  6.27e-04     0s
   6  -2.07950178e+02 -2.08260690e+02  0.00e+00 2.49e-14  1.48e-04     0s
   7  -2.08128826e+02 -2.08207558e+02  0.00e+00 3.20e-14  3.75e-05     0s
   8  -2.08169605e+02 -2.08195023e+02  0.00e+00 3.55e-14  1.21e-05     0s
   9  -2.08184078e+02 -2.08192349e+02  0.00e+00 2.84e-14  3.94e-06     0s
  10  -2.08189905e+02 -2.08191240e+02  0.00e+00 2.49e-14  6.35e-07     0s
  11  -2.08191013e+02 -2.08191029e+02  0.00e+00 3.91e-14  7.81e-09     0s
  12  -2.08191021e+02 -2.08191021e+02  8.08e-09 2.49e-14  1.41e-11     0s

Barrier solved model in 12 iterations and 0.16 seconds
Optimal objective -2.08191021e+02

Crossover log...

       0 DPushes remaining with DInf 0.0000000e+00                 0s

       0 PPushes remaining with PInf 0.0000000e+00                 0s

  Push phase complete: Pinf 0.0000000e+00, Dinf 7.9507668e-13      0s

Iteration    Objective       Primal Inf.    Dual Inf.      Time
       3   -2.0819102e+02   0.000000e+00   0.000000e+00      0s
       3   -2.0819102e+02   0.000000e+00   0.000000e+00      0s

Solved with barrier
Solved in 3 iterations and 0.19 seconds
Optimal objective -2.081910212e+02

Gurobi 7.5.1 (mac64) logging started Fri Oct  6 07:25:10 2017

Academic license - for non-commercial use only
Read LP format model from file model.lp
Reading time = 0.00 seconds
: 3 rows, 11 columns, 33 nonzeros
Optimize a model with 3 rows, 11 columns and 33 nonzeros
Coefficient statistics:
  Matrix range     [8e-01, 2e+01]
  Objective range  [1e+00, 2e+01]
  Bounds range     [1e+00, 1e+00]
  RHS range        [0e+00, 0e+00]
Presolve time: 0.00s
Presolved: 3 rows, 11 columns, 33 nonzeros

Iteration    Objective       Primal Inf.    Dual Inf.      Time
       0   -5.4486250e+01   2.298701e+01   0.000000e+00      0s
       5   -6.6009576e+00   0.000000e+00   0.000000e+00      0s

Solved in 5 iterations and 0.00 seconds
Optimal objective -6.600957627e+00

Gurobi 7.5.1 (mac64) logging started Fri Oct  6 07:25:49 2017

Academic license - for non-commercial use only
Read LP format model from file model.lp
Reading time = 0.00 seconds
: 10 rows, 21 columns, 210 nonzeros
Optimize a model with 10 rows, 21 columns and 210 nonzeros
Coefficient statistics:
  Matrix range     [6e-01, 3e+01]
  Objective range  [1e+00, 3e+01]
  Bounds range     [1e+00, 1e+00]
  RHS range        [0e+00, 0e+00]
Presolve time: 0.00s
Presolved: 10 rows, 21 columns, 210 nonzeros

Iteration    Objective       Primal Inf.    Dual Inf.      Time
       0   -1.1696598e+02   7.402341e+01   0.000000e+00      0s
      10   -1.1079147e+01   0.000000e+00   0.000000e+00      0s

Solved in 10 iterations and 0.00 seconds
Optimal objective -1.107914702e+01

Gurobi 7.5.1 (mac64) logging started Fri Oct  6 07:26:16 2017

Academic license - for non-commercial use only
Read LP format model from file model.lp
Reading time = 0.08 seconds
: 100 rows, 1001 columns, 100100 nonzeros
Optimize a model with 100 rows, 1001 columns and 100100 nonzeros
Coefficient statistics:
  Matrix range     [6e-02, 3e+01]
  Objective range  [1e-01, 3e+01]
  Bounds range     [1e+00, 1e+00]
  RHS range        [0e+00, 0e+00]

Concurrent LP optimizer: dual simplex and barrier
Showing barrier log only...

Presolve time: 0.04s
Presolved: 100 rows, 1001 columns, 100100 nonzeros

Ordering time: 0.00s

Barrier statistics:
 AA' NZ     : 4.950e+03
 Factor NZ  : 5.050e+03
 Factor Ops : 3.384e+05 (less than 1 second per iteration)
 Threads    : 1

                  Objective                Residual
Iter       Primal          Dual         Primal    Dual     Compl     Time
   0   7.33358834e+03 -1.86040752e+04  3.20e-01 3.55e-15  1.33e+01     0s
   1   5.81186634e+00 -1.87292656e+03  0.00e+00 4.26e-14  8.94e-01     0s
   2  -8.69373432e+01 -3.44307719e+02  0.00e+00 3.20e-14  1.22e-01     0s
   3  -1.83306841e+02 -2.24363016e+02  0.00e+00 2.49e-14  1.95e-02     0s
   4  -2.03231821e+02 -2.10876509e+02  0.00e+00 2.49e-14  3.64e-03     0s
   5  -2.07202082e+02 -2.08519480e+02  0.00e+00 3.20e-14  6.27e-04     0s
   6  -2.07950178e+02 -2.08260690e+02  0.00e+00 2.49e-14  1.48e-04     0s
   7  -2.08128826e+02 -2.08207558e+02  0.00e+00 3.20e-14  3.75e-05     0s
   8  -2.08169605e+02 -2.08195023e+02  0.00e+00 3.55e-14  1.21e-05     0s
   9  -2.08184078e+02 -2.08192349e+02  0.00e+00 2.84e-14  3.94e-06     0s
  10  -2.08189905e+02 -2.08191240e+02  0.00e+00 2.49e-14  6.35e-07     0s
  11  -2.08191013e+02 -2.08191029e+02  0.00e+00 3.91e-14  7.81e-09     0s
  12  -2.08191021e+02 -2.08191021e+02  8.08e-09 2.49e-14  1.41e-11     0s

Barrier solved model in 12 iterations and 0.16 seconds
Optimal objective -2.08191021e+02

Crossover log...

       0 DPushes remaining with DInf 0.0000000e+00                 0s

       0 PPushes remaining with PInf 0.0000000e+00                 0s

  Push phase complete: Pinf 0.0000000e+00, Dinf 7.9507668e-13      0s

Iteration    Objective       Primal Inf.    Dual Inf.      Time
       3   -2.0819102e+02   0.000000e+00   0.000000e+00      0s
       3   -2.0819102e+02   0.000000e+00   0.000000e+00      0s

Solved with barrier
Solved in 3 iterations and 0.19 seconds
Optimal objective -2.081910212e+02

Gurobi 7.5.1 (mac64) logging started Fri Oct  6 08:14:24 2017

Academic license - for non-commercial use only
Read LP format model from file model.lp
Reading time = 0.00 seconds
: 10 rows, 21 columns, 210 nonzeros
Optimize a model with 10 rows, 21 columns and 210 nonzeros
Coefficient statistics:
  Matrix range     [6e-01, 3e+01]
  Objective range  [1e+00, 3e+01]
  Bounds range     [1e+00, 1e+00]
  RHS range        [0e+00, 0e+00]
Presolve time: 0.00s
Presolved: 10 rows, 21 columns, 210 nonzeros

Iteration    Objective       Primal Inf.    Dual Inf.      Time
       0   -1.1696598e+02   7.402341e+01   0.000000e+00      0s
      10   -1.1079147e+01   0.000000e+00   0.000000e+00      0s

Solved in 10 iterations and 0.00 seconds
Optimal objective -1.107914702e+01

Gurobi 7.5.1 (mac64) logging started Fri Oct  6 08:15:51 2017

Academic license - for non-commercial use only
Read LP format model from file model.lp
Reading time = 0.00 seconds
: 10 rows, 21 columns, 210 nonzeros
Optimize a model with 10 rows, 21 columns and 210 nonzeros
Coefficient statistics:
  Matrix range     [6e-01, 3e+01]
  Objective range  [1e+00, 3e+01]
  Bounds range     [1e+00, 1e+00]
  RHS range        [0e+00, 0e+00]
Presolve time: 0.00s
Presolved: 10 rows, 21 columns, 210 nonzeros

Iteration    Objective       Primal Inf.    Dual Inf.      Time
       0   -1.1696598e+02   7.402341e+01   0.000000e+00      0s
      10   -1.1079147e+01   0.000000e+00   0.000000e+00      0s

Solved in 10 iterations and 0.00 seconds
Optimal objective -1.107914702e+01

Gurobi 7.5.1 (mac64) logging started Fri Oct  6 08:16:36 2017

Academic license - for non-commercial use only
Read LP format model from file model.lp
Reading time = 0.08 seconds
: 100 rows, 1001 columns, 100100 nonzeros
Optimize a model with 100 rows, 1001 columns and 100100 nonzeros
Coefficient statistics:
  Matrix range     [6e-02, 3e+01]
  Objective range  [1e-01, 3e+01]
  Bounds range     [1e+00, 1e+00]
  RHS range        [0e+00, 0e+00]

Concurrent LP optimizer: dual simplex and barrier
Showing barrier log only...

Presolve time: 0.04s
Presolved: 100 rows, 1001 columns, 100100 nonzeros

Ordering time: 0.00s

Barrier statistics:
 AA' NZ     : 4.950e+03
 Factor NZ  : 5.050e+03
 Factor Ops : 3.384e+05 (less than 1 second per iteration)
 Threads    : 1

                  Objective                Residual
Iter       Primal          Dual         Primal    Dual     Compl     Time
   0   7.33358834e+03 -1.86040752e+04  3.20e-01 3.55e-15  1.33e+01     0s
   1   5.81186634e+00 -1.87292656e+03  0.00e+00 4.26e-14  8.94e-01     0s
   2  -8.69373432e+01 -3.44307719e+02  0.00e+00 3.20e-14  1.22e-01     0s
   3  -1.83306841e+02 -2.24363016e+02  0.00e+00 2.49e-14  1.95e-02     0s
   4  -2.03231821e+02 -2.10876509e+02  0.00e+00 2.49e-14  3.64e-03     0s
   5  -2.07202082e+02 -2.08519480e+02  0.00e+00 3.20e-14  6.27e-04     0s
   6  -2.07950178e+02 -2.08260690e+02  0.00e+00 2.49e-14  1.48e-04     0s
   7  -2.08128826e+02 -2.08207558e+02  0.00e+00 3.20e-14  3.75e-05     0s
   8  -2.08169605e+02 -2.08195023e+02  0.00e+00 3.55e-14  1.21e-05     0s
   9  -2.08184078e+02 -2.08192349e+02  0.00e+00 2.84e-14  3.94e-06     0s
  10  -2.08189905e+02 -2.08191240e+02  0.00e+00 2.49e-14  6.35e-07     0s
  11  -2.08191013e+02 -2.08191029e+02  0.00e+00 3.91e-14  7.81e-09     0s
  12  -2.08191021e+02 -2.08191021e+02  8.08e-09 2.49e-14  1.41e-11     0s

Barrier solved model in 12 iterations and 0.16 seconds
Optimal objective -2.08191021e+02

Crossover log...

       0 DPushes remaining with DInf 0.0000000e+00                 0s

       0 PPushes remaining with PInf 0.0000000e+00                 0s

  Push phase complete: Pinf 0.0000000e+00, Dinf 7.9507668e-13      0s

Iteration    Objective       Primal Inf.    Dual Inf.      Time
       3   -2.0819102e+02   0.000000e+00   0.000000e+00      0s
       3   -2.0819102e+02   0.000000e+00   0.000000e+00      0s

Solved with barrier
Solved in 3 iterations and 0.19 seconds
Optimal objective -2.081910212e+02

Gurobi 7.5.1 (mac64) logging started Fri Oct  6 08:20:11 2017

Academic license - for non-commercial use only
Read LP format model from file model.lp
Reading time = 0.08 seconds
: 100 rows, 1001 columns, 100100 nonzeros
Optimize a model with 100 rows, 1001 columns and 100100 nonzeros
Coefficient statistics:
  Matrix range     [6e-02, 3e+01]
  Objective range  [1e-01, 3e+01]
  Bounds range     [1e+00, 1e+00]
  RHS range        [0e+00, 0e+00]

Concurrent LP optimizer: dual simplex and barrier
Showing barrier log only...

Presolve time: 0.04s
Presolved: 100 rows, 1001 columns, 100100 nonzeros

Ordering time: 0.00s

Barrier statistics:
 AA' NZ     : 4.950e+03
 Factor NZ  : 5.050e+03
 Factor Ops : 3.384e+05 (less than 1 second per iteration)
 Threads    : 1

                  Objective                Residual
Iter       Primal          Dual         Primal    Dual     Compl     Time
   0   7.33358834e+03 -1.86040752e+04  3.20e-01 3.55e-15  1.33e+01     0s
   1   5.81186634e+00 -1.87292656e+03  0.00e+00 4.26e-14  8.94e-01     0s
   2  -8.69373432e+01 -3.44307719e+02  0.00e+00 3.20e-14  1.22e-01     0s
   3  -1.83306841e+02 -2.24363016e+02  0.00e+00 2.49e-14  1.95e-02     0s
   4  -2.03231821e+02 -2.10876509e+02  0.00e+00 2.49e-14  3.64e-03     0s
   5  -2.07202082e+02 -2.08519480e+02  0.00e+00 3.20e-14  6.27e-04     0s
   6  -2.07950178e+02 -2.08260690e+02  0.00e+00 2.49e-14  1.48e-04     0s
   7  -2.08128826e+02 -2.08207558e+02  0.00e+00 3.20e-14  3.75e-05     0s
   8  -2.08169605e+02 -2.08195023e+02  0.00e+00 3.55e-14  1.21e-05     0s
   9  -2.08184078e+02 -2.08192349e+02  0.00e+00 2.84e-14  3.94e-06     0s
  10  -2.08189905e+02 -2.08191240e+02  0.00e+00 2.49e-14  6.35e-07     0s
  11  -2.08191013e+02 -2.08191029e+02  0.00e+00 3.91e-14  7.81e-09     0s
  12  -2.08191021e+02 -2.08191021e+02  8.08e-09 2.49e-14  1.41e-11     0s

Barrier solved model in 12 iterations and 0.17 seconds
Optimal objective -2.08191021e+02

Crossover log...

       0 DPushes remaining with DInf 0.0000000e+00                 0s

       0 PPushes remaining with PInf 0.0000000e+00                 0s

  Push phase complete: Pinf 0.0000000e+00, Dinf 7.9507668e-13      0s

Iteration    Objective       Primal Inf.    Dual Inf.      Time
       3   -2.0819102e+02   0.000000e+00   0.000000e+00      0s
       3   -2.0819102e+02   0.000000e+00   0.000000e+00      0s

Solved with barrier
Solved in 3 iterations and 0.19 seconds
Optimal objective -2.081910212e+02
